10	10
9	8	7	6	2	4	5	5	4	7	0	9	3	1	8	5	1	4	6	9
8	9	4	7	3	8	1	1	2	5	7	7	6	9	9	2	5	6	0	3
0	7	7	2	8	3	4	9	9	1	3	7	5	1	6	1	1	9	2	9
3	3	7	1	2	8	1	1	4	4	9	2	5	4	8	3	0	3	6	5
9	8	4	4	0	1	7	4	5	6	8	9	1	5	6	1	2	3	3	8
3	7	8	7	4	1	7	5	1	1	9	8	2	9	6	7	0	7	5	2
6	4	2	8	7	8	9	3	0	1	8	2	5	4	3	7	1	4	4	5
7	3	8	1	2	7	1	6	5	8	3	8	4	4	6	5	0	1	9	5
3	9	8	9	7	7	2	2	1	9	6	5	0	1	5	6	4	4	9	4
1	2	0	1	8	6	6	9	2	1	9	6	5	3	7	9	4	9	3	9
